(set-logic HORN)
(set-info :source |
    Benchmark: C_VC
    Output by Princess (http://www.philipp.ruemmer.org/princess.shtml)
|)
(set-info :status sat)
(declare-heap Heap Addr HeapObject
 defObj
 ((HeapObject 0)) (
  (
   (O_Int (getInt Int))
   (O_UInt (getUInt Int))
   (O_Addr (getAddr Addr))
   (defObj)
  )
))
(declare-fun inv_main11 (Heap AddrRange AddrRange Int) Bool)
(declare-fun inv_main12 (Heap AddrRange AddrRange Int) Bool)
(declare-fun inv_main14 (Heap AddrRange AddrRange Int Int) Bool)
(declare-fun inv_main16 (Heap AddrRange AddrRange Int Int) Bool)
(declare-fun inv_main20 (Heap AddrRange AddrRange Int Int Int) Bool)
(declare-fun inv_main26 (Heap AddrRange AddrRange Int Int Int) Bool)
(declare-fun inv_main4 (Heap AddrRange AddrRange) Bool)
(assert (forall ((var0 AddrRange) (var1 Int) (var2 Heap) (var3 AddrRange) (var4 Int) (var5 Heap) (var6 Heap)) (or (not (and (and (and (= var6 emptyHeap) (and (= var5 (newBatchHeap (batchAlloc emptyHeap (O_Int var4) 100000))) (= var3 (newAddrRange (batchAlloc emptyHeap (O_Int var4) 100000))))) (= var2 (newBatchHeap (batchAlloc emptyHeap (O_Int var1) 100000)))) (= var0 (newAddrRange (batchAlloc emptyHeap (O_Int var1) 100000))))) (inv_main4 var2 var3 var0))))
(assert (forall ((var0 Int) (var1 AddrRange) (var2 AddrRange) (var3 Int) (var4 Heap) (var5 Int) (var6 AddrRange) (var7 AddrRange) (var8 Heap)) (or (not (and (inv_main11 var8 var7 var6 var5) (and (and (is-O_Int (read var8 (nthAddrRange var7 var5))) (is-O_Int (read var8 (nthAddrRange var7 var5)))) (and (and (and (= var4 (write var8 (nthAddrRange var7 var5) (O_Int var3))) (= var2 var7)) (= var1 var6)) (= var0 var5))))) (inv_main12 var4 var2 var1 var0))))
(assert (forall ((var0 Int) (var1 Int) (var2 Int) (var3 AddrRange) (var4 AddrRange) (var5 Heap)) (or (not (and (inv_main16 var5 var4 var3 var2 var1) (and (is-O_Int (read var5 (nthAddrRange var4 var2))) (= var0 (getInt (read var5 (nthAddrRange var4 var2))))))) (inv_main20 var5 var4 var3 var2 var1 var0))))
(assert (forall ((var0 Int) (var1 Int) (var2 Int) (var3 Int) (var4 AddrRange) (var5 AddrRange) (var6 Heap)) (or (not (and (inv_main26 var6 var5 var4 var3 var2 var1) (and (and (<= 0 (+ (+ 100000 (* (- 1) (+ var1 1))) (- 1))) (and (is-O_Int (read var6 (nthAddrRange var5 var1))) (is-O_Int (read var6 (nthAddrRange var4 var1))))) (= var0 (+ var1 1))))) (inv_main26 var6 var5 var4 var3 var2 var0))))
(assert (forall ((var0 Int) (var1 Int) (var2 Int) (var3 AddrRange) (var4 AddrRange) (var5 Heap)) (or (not (and (inv_main14 var5 var4 var3 var2 var1) (and (and (not (= var1 0)) (not (<= 0 (+ (+ 100000 (* (- 1) var2)) (- 1))))) (= var0 0)))) (inv_main26 var5 var4 var3 var2 var1 var0))))
(assert (forall ((var0 Int) (var1 Int) (var2 Int) (var3 Int) (var4 Int) (var5 AddrRange) (var6 AddrRange) (var7 Heap)) (or (not (and (inv_main20 var7 var6 var5 var4 var3 var2) (and (and (and (is-O_Int (read var7 (nthAddrRange var5 var4))) (not (= var2 (getInt (read var7 (nthAddrRange var5 var4)))))) (= var1 (+ var4 1))) (= var0 0)))) (inv_main14 var7 var6 var5 var1 var0))))
(assert (forall ((var0 Int) (var1 Int) (var2 Int) (var3 Int) (var4 AddrRange) (var5 AddrRange) (var6 Heap)) (or (not (and (inv_main20 var6 var5 var4 var3 var2 var1) (and (and (is-O_Int (read var6 (nthAddrRange var4 var3))) (= var1 (getInt (read var6 (nthAddrRange var4 var3))))) (= var0 (+ var3 1))))) (inv_main14 var6 var5 var4 var0 var2))))
(assert (forall ((var0 Int) (var1 Int) (var2 AddrRange) (var3 AddrRange) (var4 Int) (var5 Heap) (var6 Int) (var7 Int) (var8 AddrRange) (var9 AddrRange) (var10 Heap)) (or (not (and (inv_main12 var10 var9 var8 var7) (and (and (and (not (<= 0 (+ (+ 100000 (* (- 1) (+ var6 1))) (- 1)))) (and (and (is-O_Int (read var10 (nthAddrRange var8 var7))) (is-O_Int (read var10 (nthAddrRange var8 var7)))) (and (and (and (= var5 (write var10 (nthAddrRange var8 var7) (O_Int var4))) (= var3 var9)) (= var2 var8)) (= var6 var7)))) (= var1 0)) (= var0 1)))) (inv_main14 var5 var3 var2 var1 var0))))
(assert (forall ((var0 Int) (var1 Int) (var2 AddrRange) (var3 AddrRange) (var4 Heap)) (or (not (and (inv_main14 var4 var3 var2 var1 var0) (<= 0 (+ (+ 100000 (* (- 1) var1)) (- 1))))) (inv_main16 var4 var3 var2 var1 var0))))
(assert (forall ((var0 Int) (var1 AddrRange) (var2 AddrRange) (var3 Heap)) (or (not (and (inv_main4 var3 var2 var1) (= var0 0))) (inv_main11 var3 var2 var1 var0))))
(assert (forall ((var0 Int) (var1 AddrRange) (var2 AddrRange) (var3 Int) (var4 Heap) (var5 Int) (var6 Int) (var7 AddrRange) (var8 AddrRange) (var9 Heap)) (or (not (and (inv_main12 var9 var8 var7 var6) (and (and (<= 0 (+ (+ 100000 (* (- 1) (+ var5 1))) (- 1))) (and (and (is-O_Int (read var9 (nthAddrRange var7 var6))) (is-O_Int (read var9 (nthAddrRange var7 var6)))) (and (and (and (= var4 (write var9 (nthAddrRange var7 var6) (O_Int var3))) (= var2 var8)) (= var1 var7)) (= var5 var6)))) (= var0 (+ var5 1))))) (inv_main11 var4 var2 var1 var0))))
(assert (forall ((var0 Int) (var1 AddrRange) (var2 AddrRange) (var3 Heap)) (not (and (inv_main11 var3 var2 var1 var0) (not (is-O_Int (read var3 (nthAddrRange var2 var0))))))))
(assert (forall ((var0 Int) (var1 AddrRange) (var2 AddrRange) (var3 Heap)) (not (and (inv_main11 var3 var2 var1 var0) (and (is-O_Int (read var3 (nthAddrRange var2 var0))) (not (within var2 (nthAddrRange var2 var0))))))))
(assert (forall ((var0 Int) (var1 AddrRange) (var2 AddrRange) (var3 Heap)) (not (and (inv_main11 var3 var2 var1 var0) (and (is-O_Int (read var3 (nthAddrRange var2 var0))) (not (is-O_Int (read var3 (nthAddrRange var2 var0)))))))))
(assert (forall ((var0 Int) (var1 AddrRange) (var2 AddrRange) (var3 Heap)) (not (and (inv_main12 var3 var2 var1 var0) (not (is-O_Int (read var3 (nthAddrRange var1 var0))))))))
(assert (forall ((var0 Int) (var1 AddrRange) (var2 AddrRange) (var3 Heap)) (not (and (inv_main12 var3 var2 var1 var0) (and (is-O_Int (read var3 (nthAddrRange var1 var0))) (not (within var1 (nthAddrRange var1 var0))))))))
(assert (forall ((var0 Int) (var1 AddrRange) (var2 AddrRange) (var3 Heap)) (not (and (inv_main12 var3 var2 var1 var0) (and (is-O_Int (read var3 (nthAddrRange var1 var0))) (not (is-O_Int (read var3 (nthAddrRange var1 var0)))))))))
(assert (forall ((var0 Int) (var1 Int) (var2 AddrRange) (var3 AddrRange) (var4 Heap)) (not (and (inv_main16 var4 var3 var2 var1 var0) (not (is-O_Int (read var4 (nthAddrRange var3 var1))))))))
(assert (forall ((var0 Int) (var1 Int) (var2 AddrRange) (var3 AddrRange) (var4 Heap)) (not (and (inv_main16 var4 var3 var2 var1 var0) (and (is-O_Int (read var4 (nthAddrRange var3 var1))) (not (within var3 (nthAddrRange var3 var1))))))))
(assert (forall ((var0 Int) (var1 Int) (var2 Int) (var3 AddrRange) (var4 AddrRange) (var5 Heap)) (not (and (inv_main20 var5 var4 var3 var2 var1 var0) (not (is-O_Int (read var5 (nthAddrRange var3 var2))))))))
(assert (forall ((var0 Int) (var1 Int) (var2 Int) (var3 AddrRange) (var4 AddrRange) (var5 Heap)) (not (and (inv_main20 var5 var4 var3 var2 var1 var0) (and (is-O_Int (read var5 (nthAddrRange var3 var2))) (not (within var3 (nthAddrRange var3 var2))))))))
(assert (forall ((var0 Int) (var1 Int) (var2 Int) (var3 AddrRange) (var4 AddrRange) (var5 Heap)) (not (and (inv_main26 var5 var4 var3 var2 var1 var0) (not (is-O_Int (read var5 (nthAddrRange var4 var0))))))))
(assert (forall ((var0 Int) (var1 Int) (var2 Int) (var3 AddrRange) (var4 AddrRange) (var5 Heap)) (not (and (inv_main26 var5 var4 var3 var2 var1 var0) (not (within var4 (nthAddrRange var4 var0)))))))
(assert (forall ((var0 Int) (var1 Int) (var2 Int) (var3 AddrRange) (var4 AddrRange) (var5 Heap)) (not (and (inv_main26 var5 var4 var3 var2 var1 var0) (not (is-O_Int (read var5 (nthAddrRange var3 var0))))))))
(assert (forall ((var0 Int) (var1 Int) (var2 Int) (var3 AddrRange) (var4 AddrRange) (var5 Heap)) (not (and (inv_main26 var5 var4 var3 var2 var1 var0) (not (within var3 (nthAddrRange var3 var0)))))))
(assert (forall ((var0 Int) (var1 Int) (var2 Int) (var3 AddrRange) (var4 AddrRange) (var5 Heap)) (not (and (inv_main26 var5 var4 var3 var2 var1 var0) (not (is-O_Int (read var5 (nthAddrRange var4 var0))))))))
(assert (forall ((var0 Int) (var1 Int) (var2 Int) (var3 AddrRange) (var4 AddrRange) (var5 Heap)) (not (and (inv_main26 var5 var4 var3 var2 var1 var0) (and (is-O_Int (read var5 (nthAddrRange var4 var0))) (not (within var4 (nthAddrRange var4 var0))))))))
(assert (forall ((var0 Int) (var1 Int) (var2 Int) (var3 AddrRange) (var4 AddrRange) (var5 Heap)) (not (and (inv_main26 var5 var4 var3 var2 var1 var0) (and (is-O_Int (read var5 (nthAddrRange var4 var0))) (not (is-O_Int (read var5 (nthAddrRange var3 var0)))))))))
(assert (forall ((var0 Int) (var1 Int) (var2 Int) (var3 AddrRange) (var4 AddrRange) (var5 Heap)) (not (and (inv_main26 var5 var4 var3 var2 var1 var0) (and (and (is-O_Int (read var5 (nthAddrRange var4 var0))) (is-O_Int (read var5 (nthAddrRange var3 var0)))) (not (within var3 (nthAddrRange var3 var0))))))))
(assert (forall ((var0 Int) (var1 Int) (var2 Int) (var3 AddrRange) (var4 AddrRange) (var5 Heap)) (not (and (inv_main26 var5 var4 var3 var2 var1 var0) (and (and (is-O_Int (read var5 (nthAddrRange var4 var0))) (is-O_Int (read var5 (nthAddrRange var3 var0)))) (not (= (getInt (read var5 (nthAddrRange var4 var0))) (getInt (read var5 (nthAddrRange var3 var0))))))))))
(check-sat)
